n = 50;
capacity = 100;
size = [80, 78, 77, 77, 75, 75, 74, 72, 69, 69, 69, 69, 68, 67, 67, 66, 63, 60, 57, 56, 55, 55, 54, 53, 52, 52, 52, 51, 48, 46, 46, 45, 45, 43, 42, 42, 40, 38, 37, 36, 35, 33, 33, 28, 27, 26, 26, 24, 23, 23];
